Li Cl  K Li  K Cl Li  K Li Cl  K Li Cl  K Li Cl Li  K Cl Li Cl Li  K Li Cl 
 1.0000000000000000
    10.8432069372705566    0.0000000000000000    0.0000000000000007
     0.0000000000000017   10.8432069372705566    0.0000000000000007
     0.0000000000000000    0.0000000000000000   10.8432069372705566
 Li  Cl  K   Li  K   Cl  Li  K   Li  Cl  K   Li  Cl  K   Li  Cl  Li  K   Cl  Li  Cl  Li  K   Li  Cl 
   4   4   1   1   2   4   2   1   1   4   1   3   4   1   3   4   2   2   4   4   4   1   1   2   4
Cartesian
  0.0000000000000000  0.0000000000000000  0.0000000000000000
  0.0000000000000004  2.7108017343176396  2.7108017343176396
  2.7108017343176396  0.0000000000000000  2.7108017343176396
  2.7108017343176400  2.7108017343176396  0.0000000000000003
  2.7108017343176396  0.0000000000000000  0.0000000000000002
  2.7108017343176400  2.7108017343176396  2.7108017343176400
  0.0000000000000000  0.0000000000000000  2.7108017343176396
  0.0000000000000004  2.7108017343176396  0.0000000000000002
  0.0000000000000000  0.0000000000000000  5.4216034686352792
  0.0000000000000004  2.7108017343176396  8.1324052029529188
  2.7108017343176396  0.0000000000000000  8.1324052029529188
  2.7108017343176400  2.7108017343176396  5.4216034686352792
  2.7108017343176396  0.0000000000000000  5.4216034686352792
  2.7108017343176400  2.7108017343176396  8.1324052029529188
  0.0000000000000000  0.0000000000000000  8.1324052029529188
  0.0000000000000004  2.7108017343176396  5.4216034686352792
  0.0000000000000009  5.4216034686352792  0.0000000000000003
  0.0000000000000013  8.1324052029529188  2.7108017343176400
  2.7108017343176405  5.4216034686352792  2.7108017343176400
  2.7108017343176409  8.1324052029529188  0.0000000000000007
  2.7108017343176405  5.4216034686352792  0.0000000000000005
  2.7108017343176409  8.1324052029529188  2.7108017343176405
  0.0000000000000009  5.4216034686352792  2.7108017343176400
  0.0000000000000013  8.1324052029529188  0.0000000000000005
  0.0000000000000009  5.4216034686352792  5.4216034686352792
  0.0000000000000013  8.1324052029529188  8.1324052029529188
  2.7108017343176405  5.4216034686352792  8.1324052029529188
  2.7108017343176409  8.1324052029529188  5.4216034686352792
  2.7108017343176405  5.4216034686352792  5.4216034686352792
  2.7108017343176409  8.1324052029529188  8.1324052029529188
  0.0000000000000009  5.4216034686352792  8.1324052029529188
  0.0000000000000013  8.1324052029529188  5.4216034686352792
  5.4216034686352792  0.0000000000000000  0.0000000000000003
  5.4216034686352792  2.7108017343176396  2.7108017343176400
  8.1324052029529188  0.0000000000000000  2.7108017343176400
  8.1324052029529188  2.7108017343176396  0.0000000000000007
  8.1324052029529188  0.0000000000000000  0.0000000000000005
  8.1324052029529188  2.7108017343176396  2.7108017343176405
  5.4216034686352792  0.0000000000000000  2.7108017343176400
  5.4216034686352792  2.7108017343176396  0.0000000000000005
  5.4216034686352792  0.0000000000000000  5.4216034686352792
  5.4216034686352792  2.7108017343176396  8.1324052029529188
  8.1324052029529188  0.0000000000000000  8.1324052029529188
  8.1324052029529188  2.7108017343176396  5.4216034686352792
  8.1324052029529188  0.0000000000000000  5.4216034686352792
  8.1324052029529188  2.7108017343176396  8.1324052029529188
  5.4216034686352792  0.0000000000000000  8.1324052029529188
  5.4216034686352792  2.7108017343176396  5.4216034686352792
  5.4216034686352801  5.4216034686352792  0.0000000000000007
  5.4216034686352801  8.1324052029529188  2.7108017343176400
  8.1324052029529188  5.4216034686352792  2.7108017343176400
  8.1324052029529188  8.1324052029529188  0.0000000000000010
  8.1324052029529188  5.4216034686352792  0.0000000000000008
  8.1324052029529188  8.1324052029529188  2.7108017343176405
  5.4216034686352801  5.4216034686352792  2.7108017343176400
  5.4216034686352801  8.1324052029529188  0.0000000000000008
  5.4216034686352801  5.4216034686352792  5.4216034686352801
  5.4216034686352801  8.1324052029529188  8.1324052029529188
  8.1324052029529188  5.4216034686352792  8.1324052029529188
  8.1324052029529188  8.1324052029529188  5.4216034686352801
  8.1324052029529188  5.4216034686352792  5.4216034686352801
  8.1324052029529188  8.1324052029529188  8.1324052029529188
  5.4216034686352801  5.4216034686352792  8.1324052029529188
  5.4216034686352801  8.1324052029529188  5.4216034686352801
