units          metal
atom_style     full
atom_modify    map yes
newton         on

read_data      initial-solid.data
velocity       all create 300.0 1312343 dist gaussian

pair_style     chgnet/gpu /nfs/turbo/coe-venkvis/ziqiw-turbo/LAMMPSs/lammps-ASC/potentials/CHGNET
pair_coeff     * * 0.3.0 Cl Li

variable myZlo equal zlo
variable myZhi equal zhi
variable myMid equal (${myZlo}+${myZhi})/2

region   solid block INF INF INF INF ${myZlo} ${myMid}
region   liquid block INF INF INF INF ${myMid} ${myZhi}
group    gSolid region solid
group    gLiquid region liquid

neighbor        0.3 bin
neigh_modify    delay 10

timestep        0.001
compute msd all msd
thermo_style    custom step temp pe etotal press vol c_msd[4]
thermo          10 
dump            1 all custom 10 xyz-npt.dump type id x y z
#dump           2 all custom 10 force-npt.dump type id fx fy fz

fix             1 all npt temp 300.0 300.0 $(100.0*dt) aniso 1.01325 1.01325 $(1000.0*dt)
run             5000
unfix           1

fix             2 all npt temp 300 1500 $(100.0*dt) z 1.01325 1.01325 $(1000.0*dt) couple none
run             10000
unfix           2

write_data      structure.ready.data

write_restart   structure.ready
    